Step 1, vio: 1491 in 13140 seconds
478 478 478 478 478 478 478 478 478 478 478 478 478 478 478 478 478 478 478 478 478 478 478 478 478 478 500 478 500 500 500 500 478 478 500 478 0 0 478 0 30 30 0 30 30 30 30 30 30 30 30 30 30 30 30 30 30 30 30 30 500 500 500 500 500 500 500 500 500 500 500 500 500 500 500 500 500 500 500 500 500 500 500 500 500 500 500 500 30 30 30 30 482 482 30 30 0 0 30 0 30 30 30 30 0 0 0 0 0 0 0 0 6 6 6 0 0 0 0 0 478 478 478 478 0 0 6 6 478 478 478 478 478 478 478 478 478 478 478 0 0 0 0 0 0 0 0 0 0 0 0 0 0 0 0 0 0 0 0 0 0 0 0 0 0 0 0 30 30 30 30 30 30 30 30 30 30 0 30 30 30 30 30 34 34 34 34 34 34 34 34 34 34 34 34 30 30 30 30 10 10 10 10 10 10 10 10 34 34 34 34 34 34 34 34 0 0 0 0 0 0 0 0 0 0 0 0 0 10 10 10 6 6 6 6 6 6 34 6 34 34 0 34 0 0 0 0 34 34 34 34 34 34 34 34 34 34 34 34 34 34 34 34 6 6 6 6 6 6 6 6 6 6 6 6 34 34 6 6 0 0 0 0 0 0 0 0 0 0 0 0 0 0 0 0 34 34 34 34 34 34 34 34 34 34 34 34 34 0 0 0 0 0 0 0 0 0 0 0 0 0 0 0 0 0 0 0 0 0 30 30 30 30 30 30 0 0 0 0 0 0 0 0 34 34 34 34 34 34 34 34 0 0 0 0 34 34 34 34 0 0 0 0 0 0 0 0 0 0 0 34 30 30 0 0 32 32 32 32 0 0 0 0 32 32 32 32 32 32 32 32 0 0 0 0 32 32 32 32 0 0 0 0 0 0 0 0 0 0 34 34 34 34 34 34 0 0 0 0 0 0 0 0 0 0 0 0 0 0 0 0 0 0 0 0 0 0 0 0 478 478 478 478 478 478 478 478 478 478 478 478 478 478 478 478 30 30 30 30 30 30 30 30 30 30 30 30 30 30 34 34 0 0 0 0 0 0 0 0 0 0 0 0 30 0 0 0 0 0 0 0 0 0 0 0 0 0 0 0 14 478 0 14 0 0 0 0 0 0 0 0 0 0 0 0 0 0 0 0 0 6 0 0 0 0 0 0 0 0 0 0 0 0 0 0 14 14 14 14 0 0 0 14 14 14 14 14 14 14 14 14 14 14 14 14 14 14 14 14 14 14 0 14 14 14 14 14 0 0 0 0 0 0 0 0 0 0 0 0 0 0 0 0 0 0 0 0 0 0 0 0 0 0 0 0 0 0 0 0 0 0 0 0 0 0 0 0 0 0 0 0 0 0 0 0 0 0 0 0 0 0 0 0 0 0 0 0 0 0 0 0 502 0 0 0 0 0 0 0 0 0 0 0 0 0 0 0 502 502 502 502 502 502 502 502 502 502 502 502 502 502 502 502 0 0 0 0 0 0 0 0 0 0 0 0 0 0 0 0 0 0 0 0 0 0 0 0 0 0 0 0 0 0 0 0 482 482 0 0 482 482 482 482 0 0 0 0 0 0 0 0 482 482 482 482 482 482 482 482 482 482 482 482 482 482 482 482 0 0 0 0 0 0 0 0 502 502 34 502 0 34 0 0 0 0 0 0 0 0 0 0 0 0 0 0 34 34 34 34 478 478 478 478 502 502 502 502 478 478 478 478 478 478 478 478 502 502 502 502 502 502 502 502 502 502 502 502 502 502 502 502 502 502 502 502 478 478 478 478 502 502 502 502 502 502 502 502 478 478 478 478 478 478 478 478 478 478 478 478 478 478 478 478 478 478 478 478 478 478 478 478 478 478 478 478 478 478 478 478 478 478 478 478 478 478 478 478 478 478 478 478 478 478 478 478 478 478 478 478 478 478 478 478 478 478 478 478 478 478 478 478 478 478 478 478 478 478 478 478 478 478 478 478 478 478 478 478 0 0 0 0 14 14 14 14 14 14 14 14 14 14 14 14 14 14 14 14 14 14 14 14 14 482 478 478 478 478 478 478 478 478 478 0 0 0 0 0 0 0 0 0 0 0 0 0 0 0 0 482 502 482 482 482 482 482 482 0 0 0 0 10 0 10 10 0 0 0 0 0 0 0 0 0 0 0 0 0 0 0 0 0 0 0 0 0 0 0 0 0 0 0 0 0 0 0 0 30 30 30 30 30 30 30 30 30 30 30 30 30 30
Step 2, vio: 1432 in 10789 seconds
478 478 478 478 478 478 478 478 478 478 478 478 478 478 478 478 478 478 478 478 478 478 478 478 478 478 500 478 500 500 500 500 478 478 500 478 0 0 478 0 30 30 0 30 30 30 30 30 30 30 30 30 30 30 30 30 30 30 30 30 500 500 500 500 500 500 500 500 500 500 500 500 500 500 500 500 500 500 500 500 500 500 500 500 500 500 500 500 30 30 30 30 482 482 30 30 0 0 30 0 30 30 30 30 0 0 0 0 0 0 0 0 6 6 6 0 0 0 0 0 478 478 478 478 0 0 6 6 478 478 478 478 478 478 478 478 478 478 478 0 0 0 0 0 0 0 0 0 0 0 0 0 0 0 0 0 0 0 0 0 0 0 0 0 0 0 0 30 30 30 30 30 30 30 30 30 30 0 30 30 30 30 30 34 34 34 34 34 34 34 34 34 34 34 34 30 30 30 30 10 10 10 10 10 10 10 10 34 34 34 34 34 34 34 34 0 0 0 0 0 0 0 0 0 0 0 0 0 10 10 10 6 6 6 6 6 6 34 6 34 34 0 34 0 0 0 0 34 34 34 34 34 34 34 34 34 34 34 34 34 34 34 34 6 6 6 6 6 6 6 6 6 6 6 6 34 34 6 6 0 0 0 0 0 0 0 0 0 0 0 0 0 0 0 0 34 34 34 34 34 34 34 34 34 34 34 34 34 0 0 0 0 0 0 0 0 0 0 0 0 0 0 0 0 0 0 0 0 0 30 30 30 30 30 30 0 0 0 0 0 0 0 0 34 34 34 34 34 34 34 34 0 0 0 0 34 34 34 34 0 0 0 0 0 0 0 0 0 0 0 34 30 30 0 0 32 32 32 32 0 0 0 0 32 32 32 32 32 32 32 32 0 0 0 0 32 32 32 32 0 0 0 0 0 0 0 0 0 0 34 34 34 34 34 34 0 0 0 0 0 0 0 0 0 0 0 0 0 0 0 0 0 0 0 0 0 0 0 0 478 478 478 478 478 478 478 478 478 478 478 478 478 478 478 478 30 30 30 30 30 30 30 30 30 30 30 30 30 30 34 34 0 0 0 0 0 0 0 0 0 0 0 0 30 0 0 0 0 0 0 0 0 0 0 0 0 0 0 0 14 478 0 14 0 0 0 0 0 0 0 0 0 0 0 0 0 0 0 0 0 6 0 0 0 0 0 0 0 0 0 0 0 0 0 0 14 14 14 14 0 0 0 14 14 14 14 14 14 14 14 14 14 14 14 14 14 14 14 14 14 14 0 14 14 14 14 14 0 0 0 0 0 0 0 0 0 0 0 0 0 0 0 0 0 0 0 0 0 0 0 0 0 0 0 0 0 0 0 0 0 0 0 0 0 0 0 0 0 0 0 0 0 0 0 0 0 0 0 0 0 0 0 0 0 0 0 0 0 0 0 0 502 6 0 0 0 0 0 0 0 0 0 0 0 0 0 0 502 502 502 502 502 502 502 502 502 502 502 502 502 502 502 502 0 0 0 0 0 0 0 0 0 0 0 0 0 0 0 0 0 0 0 0 0 0 0 0 0 0 0 0 0 0 0 0 482 482 0 0 482 482 482 482 0 0 0 0 0 0 0 0 482 482 482 482 482 482 482 482 482 482 482 482 482 482 482 482 0 0 0 0 0 0 0 0 502 502 34 502 0 34 0 0 0 0 0 0 0 0 0 0 0 0 0 0 34 34 34 34 478 478 478 478 502 502 502 502 478 478 478 478 478 478 478 478 502 502 502 502 502 502 502 502 502 502 502 502 502 502 502 502 502 502 502 502 478 478 478 478 502 502 502 502 502 502 502 502 478 478 478 478 478 478 478 478 478 478 478 478 478 478 478 478 478 478 478 478 478 478 478 478 478 478 478 478 478 478 478 478 478 478 478 478 478 478 478 478 478 478 478 478 478 478 478 478 478 478 478 478 478 478 478 478 478 478 478 478 478 478 478 478 478 478 478 478 478 478 478 478 478 478 478 478 478 478 478 478 0 0 0 0 14 14 14 14 14 14 14 14 14 14 14 14 14 14 14 14 14 14 14 14 14 482 478 478 478 478 478 478 478 478 478 0 0 0 0 0 0 0 0 0 0 0 0 0 0 0 0 482 502 482 482 482 482 482 482 0 0 0 0 10 0 10 10 0 0 0 0 0 0 0 0 0 0 0 0 0 0 0 0 0 0 0 0 0 0 0 0 0 0 0 0 0 0 0 0 30 30 30 30 30 30 30 30 30 30 30 30 30 30
Step 3, vio: 1388 in 10638 seconds
478 478 478 478 478 478 478 478 478 478 478 478 478 478 478 478 478 478 478 478 478 478 478 478 478 478 500 478 500 500 500 500 478 478 500 478 0 0 478 0 30 30 0 30 30 30 30 30 30 30 30 30 30 30 30 30 30 30 30 30 500 500 500 500 500 500 500 500 500 500 500 500 500 500 500 500 500 500 500 500 500 500 500 500 500 500 500 500 30 30 30 30 482 482 30 30 0 0 30 0 30 30 30 30 0 0 0 0 0 0 0 0 6 6 6 0 0 0 0 0 478 478 478 478 0 0 6 6 478 478 478 478 478 478 478 478 478 478 478 0 0 0 0 0 0 0 0 0 0 0 0 0 0 0 0 0 0 0 0 0 0 0 0 0 0 0 0 30 30 30 30 30 30 30 30 30 30 0 30 30 30 30 30 34 34 34 34 34 34 34 34 34 34 34 34 30 30 30 30 10 10 10 10 10 10 10 10 34 34 34 34 34 34 34 34 0 0 0 0 0 0 0 0 0 0 0 0 0 10 10 10 6 6 6 6 6 6 34 6 34 34 0 34 0 0 0 0 34 34 34 34 34 34 34 34 34 34 34 34 34 34 34 34 6 6 6 6 6 6 6 6 6 6 6 6 34 34 6 6 0 0 0 0 0 0 0 0 0 0 0 0 0 0 0 0 34 34 34 34 34 34 34 34 34 34 34 34 34 0 0 0 0 0 0 0 0 0 0 0 0 0 0 0 0 0 0 0 0 0 30 30 30 30 30 30 0 0 0 0 0 0 0 0 34 34 34 34 34 34 34 34 0 0 0 0 34 34 34 34 0 0 0 0 0 0 0 0 0 0 0 34 30 30 0 0 32 32 32 32 0 0 0 0 32 32 32 32 32 32 32 32 0 0 0 0 32 32 32 32 0 0 0 0 0 0 0 0 0 0 34 34 34 34 34 34 0 0 0 0 0 0 0 0 0 0 0 0 0 0 0 0 0 0 0 0 0 0 0 0 478 478 478 478 478 478 478 478 478 478 478 478 478 478 478 478 30 30 30 30 30 30 30 30 30 30 30 30 30 30 34 34 0 0 0 0 0 0 0 0 0 0 0 0 30 0 0 0 0 0 0 0 0 0 0 0 0 0 0 0 14 478 0 14 0 0 0 0 0 0 0 0 0 0 0 0 0 0 0 0 0 6 0 0 0 0 0 0 0 0 0 0 0 0 0 0 14 14 14 14 0 0 0 14 14 14 14 14 14 14 14 14 14 14 14 14 14 14 14 14 14 14 0 14 14 14 14 14 0 0 0 0 0 0 0 0 0 0 0 0 0 0 0 0 0 0 0 0 0 0 0 0 0 0 0 0 0 0 0 0 0 32 0 0 0 0 0 0 0 0 0 0 0 0 0 0 0 0 0 0 0 0 0 0 0 0 0 0 0 0 0 0 502 6 0 0 0 0 0 0 0 0 0 0 0 0 0 0 502 502 502 502 502 502 502 502 502 502 502 502 502 502 502 502 0 0 0 0 0 0 0 0 0 0 0 0 0 0 0 0 0 0 0 0 0 0 0 0 0 0 0 0 0 0 0 0 482 482 0 0 482 482 482 482 0 0 0 0 0 0 0 0 482 482 482 482 482 482 482 482 482 482 482 482 482 482 482 482 0 0 0 0 0 0 0 0 502 502 34 502 0 34 0 0 0 0 0 0 0 0 0 0 0 0 0 0 34 34 34 34 478 478 478 478 502 502 502 502 478 478 478 478 478 478 478 478 502 502 502 502 502 502 502 502 502 502 502 502 502 502 502 502 502 502 502 502 478 478 478 478 502 502 502 502 502 502 502 502 478 478 478 478 478 478 478 478 478 478 478 478 478 478 478 478 478 478 478 478 478 478 478 478 478 478 478 478 478 478 478 478 478 478 478 478 478 478 478 478 478 478 478 478 478 478 478 478 478 478 478 478 478 478 478 478 478 478 478 478 478 478 478 478 478 478 478 478 478 478 478 478 478 478 478 478 478 478 478 478 0 0 0 0 14 14 14 14 14 14 14 14 14 14 14 14 14 14 14 14 14 14 14 14 14 482 478 478 478 478 478 478 478 478 478 0 0 0 0 0 0 0 0 0 0 0 0 0 0 0 0 482 502 482 482 482 482 482 482 0 0 0 0 10 0 10 10 0 0 0 0 0 0 0 0 0 0 0 0 0 0 0 0 0 0 0 0 0 0 0 0 0 0 0 0 0 0 0 0 30 30 30 30 30 30 30 30 30 30 30 30 30 30
Step 4, vio: 1361 in 11016 seconds
478 478 478 478 478 478 478 478 478 478 478 478 478 478 478 478 478 478 478 478 478 478 478 478 478 478 500 478 500 500 500 500 478 478 500 478 0 0 478 0 30 30 0 30 30 30 30 30 30 30 30 30 30 30 30 30 30 30 30 30 500 500 500 500 500 500 500 500 500 500 500 500 500 500 500 500 500 500 500 500 500 500 500 500 500 500 500 500 30 30 30 30 482 482 30 30 0 0 30 0 30 30 30 30 0 0 0 0 0 0 0 0 6 6 6 0 0 0 0 0 478 478 478 478 0 0 6 6 478 478 478 478 478 478 478 478 478 478 478 0 0 0 0 0 0 0 0 0 0 0 0 0 0 0 0 0 0 0 0 0 0 0 0 0 0 0 0 30 30 30 30 30 30 30 30 30 30 0 30 30 30 30 30 34 34 34 34 34 34 34 34 34 34 34 34 30 30 30 30 10 10 10 10 10 10 10 10 34 34 34 34 34 34 34 34 0 0 0 0 0 0 0 0 0 0 0 0 0 10 10 10 6 6 6 6 6 6 34 6 34 34 0 34 0 0 0 0 34 34 34 34 34 34 34 34 34 34 34 34 34 34 34 34 6 6 6 6 6 6 6 6 6 6 6 6 34 34 6 6 0 0 0 0 0 0 0 0 0 0 0 0 0 0 0 0 34 34 34 34 34 34 34 34 34 34 34 34 34 0 0 0 0 0 0 0 0 0 0 0 0 0 0 0 0 0 0 0 0 0 30 30 30 30 30 30 0 0 0 0 0 0 0 0 34 34 34 34 34 34 34 34 0 0 0 0 34 34 34 34 0 0 0 0 0 0 0 0 0 0 0 34 30 30 0 0 32 32 32 32 0 0 0 0 32 32 32 32 32 32 32 32 0 0 0 0 32 32 32 32 0 0 0 0 0 0 0 0 0 0 34 34 34 34 34 34 0 0 0 0 0 0 0 0 0 0 0 0 0 0 0 0 0 0 0 0 0 0 0 0 478 478 478 478 478 478 478 478 478 478 478 478 478 478 478 478 30 30 30 30 30 30 30 30 30 30 30 30 30 30 34 34 0 0 0 0 0 0 0 0 0 0 0 0 30 0 0 0 0 0 0 0 0 0 0 0 0 0 0 0 14 478 0 14 0 0 0 0 0 0 0 0 0 0 0 0 0 0 0 0 32 6 0 0 0 0 0 0 0 0 0 0 0 0 0 0 14 14 14 14 0 0 0 14 14 14 14 14 14 14 14 14 14 14 14 14 14 14 14 14 14 14 0 14 14 14 14 14 0 0 0 0 0 0 0 0 0 0 0 0 0 0 0 0 0 0 0 0 0 0 0 0 0 0 0 0 0 0 0 0 0 32 0 0 0 0 0 0 0 0 0 0 0 0 0 0 0 0 0 0 0 0 0 0 0 0 0 0 0 0 0 0 502 6 0 0 0 0 0 0 0 0 0 0 0 0 0 0 502 502 502 502 502 502 502 502 502 502 502 502 502 502 502 502 0 0 0 0 0 0 0 0 0 0 0 0 0 0 0 0 0 0 0 0 0 0 0 0 0 0 0 0 0 0 0 0 482 482 0 0 482 482 482 482 0 0 0 0 0 0 0 0 482 482 482 482 482 482 482 482 482 482 482 482 482 482 482 482 0 0 0 0 0 0 0 0 502 502 34 502 0 34 0 0 0 0 0 0 0 0 0 0 0 0 0 0 34 34 34 34 478 478 478 478 502 502 502 502 478 478 478 478 478 478 478 478 502 502 502 502 502 502 502 502 502 502 502 502 502 502 502 502 502 502 502 502 478 478 478 478 502 502 502 502 502 502 502 502 478 478 478 478 478 478 478 478 478 478 478 478 478 478 478 478 478 478 478 478 478 478 478 478 478 478 478 478 478 478 478 478 478 478 478 478 478 478 478 478 478 478 478 478 478 478 478 478 478 478 478 478 478 478 478 478 478 478 478 478 478 478 478 478 478 478 478 478 478 478 478 478 478 478 478 478 478 478 478 478 0 0 0 0 14 14 14 14 14 14 14 14 14 14 14 14 14 14 14 14 14 14 14 14 14 482 478 478 478 478 478 478 478 478 478 0 0 0 0 0 0 0 0 0 0 0 0 0 0 0 0 482 502 482 482 482 482 482 482 0 0 0 0 10 0 10 10 0 0 0 0 0 0 0 0 0 0 0 0 0 0 0 0 0 0 0 0 0 0 0 0 0 0 0 0 0 0 0 0 30 30 30 30 30 30 30 30 30 30 30 30 30 30
